\ENCODING=ISO-8859-1
\Problem name: ilog.cplex

Minimize
 obj1: 107914 x1 + 92109 x2 + 107898 x3 + 97108 x4 + 96154 x5 + 103299 x6
       + 108794 x7 + 105631 x8 + 97741 x9 + 105323 x10 + 104580 x11 + 95407 x12
       + 101549 x13 + 101541 x14 + 98190 x15 + 99124 x16 + 99631 x17
       + 90348 x18 + 97665 x19 + 90812 x20 + 96859 x21 + 99715 x22 + 108282 x23
       + 103603 x24 + 96892 x25 + 106815 x26 + 94281 x27 + 95853 x28
       + 95614 x29 + 106309 x30 + 103124 x31 + 103927 x32 + 103203 x33
       + 92930 x34 + 90576 x35 + 109775 x36 + 101626 x37 + 106667 x38
       + 95832 x39 + 91939 x40 + 105640 x41 + 92181 x42 + 92508 x43 + 99739 x44
       + 92265 x45 + 107971 x46 + 103533 x47 + 92123 x48 + 96201 x49
       + 105383 x50 + 102742 x51 + 103699 x52 + 94083 x53 + 106278 x54
       + 105642 x55 + 90564 x56 + 93115 x57 + 107051 x58 + 90919 x59
       + 100044 x60 + 93142 x61 + 103540 x62 + 98820 x63 + 101936 x64
       + 101392 x65 + 101381 x66 + 105603 x67 + 91195 x68 + 105415 x69
       + 95663 x70 + 97080 x71 + 101336 x72 + 103410 x73 + 90540 x74
       + 92544 x75 + 100348 x76 + 108677 x77 + 90378 x78 + 98083 x79
       + 90158 x80 + 103450 x81 + 95744 x82 + 98445 x83 + 109096 x84
       + 105339 x85 + 106277 x86 + 107422 x87 + 100918 x88 + 108253 x89
       + 96898 x90 + 108165 x91 + 103647 x92 + 108885 x93 + 93837 x94
       + 106861 x95 + 106808 x96 + 109732 x97 + 92578 x98 + 95902 x99
       + 106629 x100 + 95303 x101 + 97510 x102 + 98797 x103 + 100418 x104
       + 92681 x105 + 104272 x106 + 103559 x107 + 99744 x108 + 106537 x109
       + 95093 x110 + 98484 x111 + 99411 x112 + 91042 x113 + 106165 x114
       + 102403 x115 + 99710 x116 + 102155 x117 + 98518 x118 + 98649 x119
       + 103088 x120 + 103334 x121 + 103298 x122 + 101084 x123 + 91241 x124
       + 95330 x125 + 101304 x126 + 97172 x127 + 92027 x128 + 109746 x129
       + 104655 x130 + 94142 x131 + 94510 x132 + 97663 x133 + 94525 x134
       + 106174 x135 + 109408 x136 + 101818 x137 + 105676 x138 + 108058 x139
       + 91746 x140 + 103655 x141 + 95842 x142 + 103935 x143 + 102689 x144
       + 105036 x145 + 96016 x146 + 98478 x147 + 108354 x148 + 98470 x149
       + 106325 x150 + 101377 x151 + 93274 x152 + 100459 x153 + 99675 x154
       + 98877 x155 + 101461 x156 + 109944 x157 + 91395 x158 + 105742 x159
       + 105906 x160 + 96475 x161 + 108678 x162 + 107109 x163 + 109323 x164
       + 104073 x165 + 94903 x166 + 105338 x167 + 108530 x168 + 105260 x169
       + 92548 x170 + 108475 x171 + 106963 x172 + 95121 x173 + 105367 x174
       + 90658 x175 + 99299 x176 + 108449 x177 + 101936 x178 + 100511 x179
       + 107583 x180 + 93074 x181 + 94303 x182 + 97870 x183 + 103328 x184
       + 99533 x185 + 95797 x186 + 93993 x187 + 100643 x188 + 94954 x189
       + 98020 x190 + 95936 x191 + 91761 x192 + 97260 x193 + 108603 x194
       + 91856 x195 + 98212 x196 + 94792 x197 + 98546 x198 + 100777 x199
       + 108395 x200 + 105482 x201 + 103672 x202 + 99977 x203 + 92808 x204
       + 98319 x205 + 100297 x206 + 97989 x207 + 102615 x208 + 92401 x209
       + 99919 x210 + 108461 x211 + 99168 x212 + 98026 x213 + 97208 x214
       + 90165 x215 + 104493 x216 + 108361 x217 + 94522 x218 + 109028 x219
       + 106985 x220 + 91430 x221 + 102318 x222 + 105676 x223 + 98063 x224
       + 106924 x225 + 101853 x226 + 97444 x227 + 98981 x228 + 101268 x229
       + 103697 x230 + 101641 x231 + 100083 x232 + 92504 x233 + 90766 x234
       + 90324 x235 + 107779 x236 + 90324 x237 + 90362 x238 + 95915 x239
       + 98139 x240 + 105995 x241 + 96168 x242 + 101685 x243 + 90204 x244
       + 91924 x245 + 98162 x246 + 91503 x247 + 97030 x248 + 91257 x249
       + 96114 x250 + 90615 x251 + 109103 x252 + 101508 x253 + 109460 x254
       + 104528 x255 + 97984 x256 + 105800 x257 + 107384 x258 + 107280 x259
       + 108474 x260 + 109245 x261 + 93189 x262 + 94618 x263 + 96249 x264
       + 104130 x265 + 109103 x266 + 97228 x267 + 104339 x268 + 92825 x269
       + 97312 x270 + 93057 x271 + 99129 x272 + 106342 x273 + 106288 x274
       + 100213 x275 + 107528 x276 + 94594 x277 + 108522 x278 + 90022 x279
       + 105790 x280 + 108254 x281 + 98986 x282 + 103091 x283 + 107052 x284
       + 103210 x285 + 100538 x286 + 95161 x287 + 96867 x288 + 100339 x289
       + 95019 x290 + 104103 x291 + 93823 x292 + 105710 x293 + 106895 x294
       + 94560 x295 + 105833 x296 + 99300 x297 + 90129 x298 + 102557 x299
       + 91717 x300 + 102440 x301 + 90277 x302 + 93016 x303 + 96526 x304
       + 106689 x305 + 109029 x306 + 96447 x307 + 97206 x308 + 101426 x309
       + 106020 x310 + 99738 x311 + 96118 x312 + 109637 x313 + 93209 x314
       + 101398 x315 + 98247 x316 + 94712 x317 + 94355 x318 + 106922 x319
       + 104896 x320 + 93716 x321 + 102006 x322 + 94233 x323 + 101382 x324
       + 90266 x325 + 90264 x326 + 98233 x327 + 107042 x328 + 91818 x329
       + 96437 x330 + 102173 x331 + 90206 x332 + 105866 x333 + 93927 x334
       + 103561 x335 + 102823 x336 + 104904 x337 + 98554 x338 + 97971 x339
       + 102116 x340 + 90934 x341 + 101022 x342 + 95383 x343 + 99953 x344
       + 96906 x345 + 99325 x346 + 90594 x347 + 94514 x348 + 94677 x349
       + 96648 x350 + 92670 x351 + 109112 x352 + 92655 x353 + 103709 x354
       + 109170 x355 + 100279 x356 + 91370 x357 + 94217 x358 + 94451 x359
       + 96780 x360 + 99195 x361 + 97374 x362 + 105325 x363 + 102865 x364
       + 109584 x365 + 97297 x366 + 90279 x367 + 97238 x368 + 90530 x369
       + 93968 x370 + 92923 x371 + 105119 x372 + 102199 x373 + 91833 x374
       + 100937 x375 + 99804 x376 + 90007 x377 + 106067 x378 + 102462 x379
       + 100431 x380 + 101184 x381 + 99057 x382 + 99268 x383 + 95795 x384
       + 93071 x385 + 108153 x386 + 103986 x387 + 102841 x388 + 102175 x389
       + 99783 x390 + 97340 x391 + 102840 x392 + 104441 x393 + 104761 x394
       + 100520 x395 + 108276 x396 + 99259 x397 + 94942 x398 + 107730 x399
       + 99142 x400 + 108566 x401 + 96261 x402 + 98302 x403 + 107745 x404
       + 94627 x405 + 90167 x406 + 92948 x407 + 107872 x408 + 107716 x409
       + 107130 x410 + 102083 x411 + 100412 x412 + 90944 x413 + 99769 x414
       + 103289 x415 + 104143 x416 + 94879 x417 + 102996 x418 + 101164 x419
       + 91067 x420 + 107273 x421 + 97930 x422 + 106769 x423 + 100465 x424
       + 93479 x425 + 108474 x426 + 106595 x427 + 103363 x428 + 93879 x429
       + 109605 x430 + 102304 x431 + 109317 x432 + 90940 x433 + 94800 x434
       + 104098 x435 + 103544 x436 + 100381 x437 + 98915 x438 + 107764 x439
       + 109183 x440 + 98480 x441 + 102363 x442 + 98286 x443 + 106785 x444
       + 90679 x445 + 92671 x446 + 101366 x447 + 91184 x448 + 95414 x449
       + 90232 x450 + 96541 x451 + 109195 x452 + 92915 x453 + 97420 x454
       + 95238 x455 + 105434 x456 + 96089 x457 + 106501 x458 + 108941 x459
       + 92070 x460 + 105802 x461 + 93235 x462 + 108196 x463 + 108895 x464
       + 94993 x465 + 92909 x466 + 102734 x467 + 109946 x468 + 107323 x469
       + 99210 x470 + 99849 x471 + 99647 x472 + 101153 x473 + 102621 x474
       + 109812 x475 + 107055 x476 + 94402 x477 + 106201 x478 + 94105 x479
       + 98801 x480 + 100431 x481 + 94734 x482 + 108632 x483 + 106006 x484
       + 99320 x485 + 98232 x486 + 91146 x487 + 100800 x488 + 93787 x489
       + 91462 x490 + 99797 x491 + 104019 x492 + 94463 x493 + 107391 x494
       + 107998 x495 + 97242 x496 + 105382 x497 + 94377 x498 + 99753 x499
       + 89109 x500 + 394723 x501 + 374872 x502 + 390258 x503 + 384207 x504
       + 401278 x505 + 404378 x506 + 409672 x507 + 367519 x508 + 420727 x509
       + 368585 x510 + 418681 x511 + 383822 x512 + 407168 x513 + 373085 x514
       + 400699 x515 + 423661 x516 + 439648 x517 + 376973 x518 + 417918 x519
       + 380815 x520 + 417102 x521 + 365309 x522 + 374890 x523 + 381522 x524
       + 423714 x525 + 411872 x526 + 387107 x527 + 419482 x528 + 368414 x529
       + 361307 x530 + 365827 x531 + 412960 x532 + 439139 x533 + 381119 x534
       + 381066 x535 + 425418 x536 + 416994 x537 + 422752 x538 + 402934 x539
       + 403656 x540 + 367337 x541 + 367379 x542 + 427122 x543 + 427530 x544
       + 384330 x545 + 435797 x546 + 403626 x547 + 372917 x548 + 432398 x549
       + 480291 x550
Subject To
 c1:   x7 + x11 + x14 - x15 + x16  = -1
 c2:   x57 + x61 + x64 - x65 + x66  = 0
 c3:   x107 + x111 + x114 - x115 + x116  = 1
 c4:   x157 + x161 + x164 - x165 + x166  = 0
 c5:   x207 + x211 + x214 - x215 + x216  = 0
 c6:   x257 + x261 + x264 - x265 + x266  = 0
 c7:   x307 + x311 + x314 - x315 + x316  = 0
 c8:   x357 + x361 + x364 - x365 + x366  = 0
 c9:   x407 + x411 + x414 - x415 + x416  = 0
 c10:  x457 + x461 + x464 - x465 + x466  = 0
 c11:  - x1 - x6 + x8 - x9 + x13 + x43 + x50  = 0
 c12:  - x51 - x56 + x58 - x59 + x63 + x93 + x100  = 0
 c13:  - x101 - x106 + x108 - x109 + x113 + x143 + x150  = 0
 c14:  - x151 - x156 + x158 - x159 + x163 + x193 + x200  = 0
 c15:  - x201 - x206 + x208 - x209 + x213 + x243 + x250  = 0
 c16:  - x251 - x256 + x258 - x259 + x263 + x293 + x300  = 0
 c17:  - x301 - x306 + x308 - x309 + x313 + x343 + x350  = 0
 c18:  - x351 - x356 + x358 - x359 + x363 + x393 + x400  = 0
 c19:  - x401 - x406 + x408 - x409 + x413 + x443 + x450  = 1
 c20:  - x451 - x456 + x458 - x459 + x463 + x493 + x500  = 0
 c21:  x24 - x40 + x45 - x47  = 0
 c22:  x74 - x90 + x95 - x97  = 0
 c23:  x124 - x140 + x145 - x147  = 0
 c24:  x174 - x190 + x195 - x197  = 0
 c25:  x224 - x240 + x245 - x247  = 0
 c26:  x274 - x290 + x295 - x297  = 0
 c27:  x324 - x340 + x345 - x347  = 0
 c28:  x374 - x390 + x395 - x397  = 1
 c29:  x424 - x440 + x445 - x447  = 0
 c30:  x474 - x490 + x495 - x497  = 0
 c31:  - x12 - x14 - x17 - x21 + x23 - x29 + x30 - x33 + x35 + x40 + x48  = 0
 c32:  - x62 - x64 - x67 - x71 + x73 - x79 + x80 - x83 + x85 + x90 + x98  = 1
 c33:  - x112 - x114 - x117 - x121 + x123 - x129 + x130 - x133 + x135 + x140
       + x148  = 0
 c34:  - x162 - x164 - x167 - x171 + x173 - x179 + x180 - x183 + x185 + x190
       + x198  = 1
 c35:  - x212 - x214 - x217 - x221 + x223 - x229 + x230 - x233 + x235 + x240
       + x248  = 0
 c36:  - x262 - x264 - x267 - x271 + x273 - x279 + x280 - x283 + x285 + x290
       + x298  = -1
 c37:  - x312 - x314 - x317 - x321 + x323 - x329 + x330 - x333 + x335 + x340
       + x348  = 0
 c38:  - x362 - x364 - x367 - x371 + x373 - x379 + x380 - x383 + x385 + x390
       + x398  = 0
 c39:  - x412 - x414 - x417 - x421 + x423 - x429 + x430 - x433 + x435 + x440
       + x448  = 0
 c40:  - x462 - x464 - x467 - x471 + x473 - x479 + x480 - x483 + x485 + x490
       + x498  = 0
 c41:  - x3 + x4 + x9 - x19 - x22 + x25 + x26 + x27 + x34  = 0
 c42:  - x53 + x54 + x59 - x69 - x72 + x75 + x76 + x77 + x84  = 0
 c43:  - x103 + x104 + x109 - x119 - x122 + x125 + x126 + x127 + x134  = -1
 c44:  - x153 + x154 + x159 - x169 - x172 + x175 + x176 + x177 + x184  = 0
 c45:  - x203 + x204 + x209 - x219 - x222 + x225 + x226 + x227 + x234  = 0
 c46:  - x253 + x254 + x259 - x269 - x272 + x275 + x276 + x277 + x284  = 0
 c47:  - x303 + x304 + x309 - x319 - x322 + x325 + x326 + x327 + x334  = 0
 c48:  - x353 + x354 + x359 - x369 - x372 + x375 + x376 + x377 + x384  = 0
 c49:  - x403 + x404 + x409 - x419 - x422 + x425 + x426 + x427 + x434  = 0
 c50:  - x453 + x454 + x459 - x469 - x472 + x475 + x476 + x477 + x484  = 0
 c51:  x18 + x19 - x27 - x31 + x33 + x46 - x50  = 0
 c52:  x68 + x69 - x77 - x81 + x83 + x96 - x100  = -1
 c53:  x118 + x119 - x127 - x131 + x133 + x146 - x150  = 0
 c54:  x168 + x169 - x177 - x181 + x183 + x196 - x200  = 0
 c55:  x218 + x219 - x227 - x231 + x233 + x246 - x250  = 0
 c56:  x268 + x269 - x277 - x281 + x283 + x296 - x300  = 0
 c57:  x318 + x319 - x327 - x331 + x333 + x346 - x350  = 0
 c58:  x368 + x369 - x377 - x381 + x383 + x396 - x400  = -1
 c59:  x418 + x419 - x427 - x431 + x433 + x446 - x450  = 0
 c60:  x468 + x469 - x477 - x481 + x483 + x496 - x500  = 0
 c61:  - x4 - x13 - x23  = 0
 c62:  - x54 - x63 - x73  = 0
 c63:  - x104 - x113 - x123  = 0
 c64:  - x154 - x163 - x173  = 0
 c65:  - x204 - x213 - x223  = 0
 c66:  - x254 - x263 - x273  = 0
 c67:  - x304 - x313 - x323  = 0
 c68:  - x354 - x363 - x373  = 0
 c69:  - x404 - x413 - x423  = 0
 c70:  - x454 - x463 - x473  = 0
 c71:  - x41 + x42  = 0
 c72:  - x91 + x92  = 0
 c73:  - x141 + x142  = 0
 c74:  - x191 + x192  = -1
 c75:  - x241 + x242  = 0
 c76:  - x291 + x292  = 0
 c77:  - x341 + x342  = 0
 c78:  - x391 + x392  = 0
 c79:  - x441 + x442  = 0
 c80:  - x491 + x492  = 0
 c81:  - x2 - x7 - x8 + x15 + x22 - x25 - x30 + x31 - x32 + x37 + x39  = 0
 c82:  - x52 - x57 - x58 + x65 + x72 - x75 - x80 + x81 - x82 + x87 + x89  = 0
 c83:  - x102 - x107 - x108 + x115 + x122 - x125 - x130 + x131 - x132 + x137
       + x139  = 0
 c84:  - x152 - x157 - x158 + x165 + x172 - x175 - x180 + x181 - x182 + x187
       + x189  = 0
 c85:  - x202 - x207 - x208 + x215 + x222 - x225 - x230 + x231 - x232 + x237
       + x239  = 1
 c86:  - x252 - x257 - x258 + x265 + x272 - x275 - x280 + x281 - x282 + x287
       + x289  = 0
 c87:  - x302 - x307 - x308 + x315 + x322 - x325 - x330 + x331 - x332 + x337
       + x339  = 0
 c88:  - x352 - x357 - x358 + x365 + x372 - x375 - x380 + x381 - x382 + x387
       + x389  = 0
 c89:  - x402 - x407 - x408 + x415 + x422 - x425 - x430 + x431 - x432 + x437
       + x439  = 0
 c90:  - x452 - x457 - x458 + x465 + x472 - x475 - x480 + x481 - x482 + x487
       + x489  = -1
 c91:  x2 + x5 + x6 - x16 - x26 - x28 - x35 - x36 + x41 - x44  = 0
 c92:  x52 + x55 + x56 - x66 - x76 - x78 - x85 - x86 + x91 - x94  = 0
 c93:  x102 + x105 + x106 - x116 - x126 - x128 - x135 - x136 + x141 - x144  = 0
 c94:  x152 + x155 + x156 - x166 - x176 - x178 - x185 - x186 + x191 - x194  = 0
 c95:  x202 + x205 + x206 - x216 - x226 - x228 - x235 - x236 + x241 - x244  = 0
 c96:  x252 + x255 + x256 - x266 - x276 - x278 - x285 - x286 + x291 - x294  = 0
 c97:  x302 + x305 + x306 - x316 - x326 - x328 - x335 - x336 + x341 - x344  = 0
 c98:  x352 + x355 + x356 - x366 - x376 - x378 - x385 - x386 + x391 - x394  = 0
 c99:  x402 + x405 + x406 - x416 - x426 - x428 - x435 - x436 + x441 - x444  = 0
 c100: x452 + x455 + x456 - x466 - x476 - x478 - x485 - x486 + x491 - x494  = 0
 c101: x10 - x11 + x21 - x46 - x49  = 0
 c102: x60 - x61 + x71 - x96 - x99  = 0
 c103: x110 - x111 + x121 - x146 - x149  = 0
 c104: x160 - x161 + x171 - x196 - x199  = 0
 c105: x210 - x211 + x221 - x246 - x249  = 0
 c106: x260 - x261 + x271 - x296 - x299  = 0
 c107: x310 - x311 + x321 - x346 - x349  = 0
 c108: x360 - x361 + x371 - x396 - x399  = 0
 c109: x410 - x411 + x421 - x446 - x449  = -1
 c110: x460 - x461 + x471 - x496 - x499  = 1
 c111: x1 - x5 + x17 - x18 - x20 - x37  = 0
 c112: x51 - x55 + x67 - x68 - x70 - x87  = 0
 c113: x101 - x105 + x117 - x118 - x120 - x137  = 0
 c114: x151 - x155 + x167 - x168 - x170 - x187  = 0
 c115: x201 - x205 + x217 - x218 - x220 - x237  = 0
 c116: x251 - x255 + x267 - x268 - x270 - x287  = 0
 c117: x301 - x305 + x317 - x318 - x320 - x337  = 0
 c118: x351 - x355 + x367 - x368 - x370 - x387  = 0
 c119: x401 - x405 + x417 - x418 - x420 - x437  = 0
 c120: x451 - x455 + x467 - x468 - x470 - x487  = 0
 c121: x3 - x24 - x39 - x42 - x43 + x44 + x49  = 0
 c122: x53 - x74 - x89 - x92 - x93 + x94 + x99  = 0
 c123: x103 - x124 - x139 - x142 - x143 + x144 + x149  = 0
 c124: x153 - x174 - x189 - x192 - x193 + x194 + x199  = 0
 c125: x203 - x224 - x239 - x242 - x243 + x244 + x249  = 0
 c126: x253 - x274 - x289 - x292 - x293 + x294 + x299  = 0
 c127: x303 - x324 - x339 - x342 - x343 + x344 + x349  = 0
 c128: x353 - x374 - x389 - x392 - x393 + x394 + x399  = 0
 c129: x403 - x424 - x439 - x442 - x443 + x444 + x449  = 0
 c130: x453 - x474 - x489 - x492 - x493 + x494 + x499  = 0
 c131: - x10 + x12 + x20 + x32 + x36 + x38 - x45 + x47 - x48  = 1
 c132: - x60 + x62 + x70 + x82 + x86 + x88 - x95 + x97 - x98  = 0
 c133: - x110 + x112 + x120 + x132 + x136 + x138 - x145 + x147 - x148  = 0
 c134: - x160 + x162 + x170 + x182 + x186 + x188 - x195 + x197 - x198  = 0
 c135: - x210 + x212 + x220 + x232 + x236 + x238 - x245 + x247 - x248  = -1
 c136: - x260 + x262 + x270 + x282 + x286 + x288 - x295 + x297 - x298  = 1
 c137: - x310 + x312 + x320 + x332 + x336 + x338 - x345 + x347 - x348  = 1
 c138: - x360 + x362 + x370 + x382 + x386 + x388 - x395 + x397 - x398  = 0
 c139: - x410 + x412 + x420 + x432 + x436 + x438 - x445 + x447 - x448  = 0
 c140: - x460 + x462 + x470 + x482 + x486 + x488 - x495 + x497 - x498  = 0
 c141: x28 + x29 - x34 - x38  = 0
 c142: x78 + x79 - x84 - x88  = 0
 c143: x128 + x129 - x134 - x138  = 0
 c144: x178 + x179 - x184 - x188  = 0
 c145: x228 + x229 - x234 - x238  = 0
 c146: x278 + x279 - x284 - x288  = 0
 c147: x328 + x329 - x334 - x338  = -1
 c148: x378 + x379 - x384 - x388  = 0
 c149: x428 + x429 - x434 - x438  = 0
 c150: x478 + x479 - x484 - x488  = 0
 c151: 4 x1 + 4 x51 + 4 x101 + 4 x151 + 4 x201 + 4 x251 + 4 x301 + 4 x351
       + 4 x401 + 4 x451 - 5 x501 <= 0
 c152: 4 x2 + 4 x52 + 4 x102 + 4 x152 + 4 x202 + 4 x252 + 4 x302 + 4 x352
       + 4 x402 + 4 x452 - 5 x502 <= 0
 c153: 4 x3 + 4 x53 + 4 x103 + 4 x153 + 4 x203 + 4 x253 + 4 x303 + 4 x353
       + 4 x403 + 4 x453 - 5 x503 <= 0
 c154: 4 x4 + 4 x54 + 4 x104 + 4 x154 + 4 x204 + 4 x254 + 4 x304 + 4 x354
       + 4 x404 + 4 x454 - 5 x504 <= 0
 c155: 4 x5 + 4 x55 + 4 x105 + 4 x155 + 4 x205 + 4 x255 + 4 x305 + 4 x355
       + 4 x405 + 4 x455 - 5 x505 <= 0
 c156: 4 x6 + 4 x56 + 4 x106 + 4 x156 + 4 x206 + 4 x256 + 4 x306 + 4 x356
       + 4 x406 + 4 x456 - 5 x506 <= 0
 c157: 4 x7 + 4 x57 + 4 x107 + 4 x157 + 4 x207 + 4 x257 + 4 x307 + 4 x357
       + 4 x407 + 4 x457 - 5 x507 <= 0
 c158: 4 x8 + 4 x58 + 4 x108 + 4 x158 + 4 x208 + 4 x258 + 4 x308 + 4 x358
       + 4 x408 + 4 x458 - 5 x508 <= 0
 c159: 4 x9 + 4 x59 + 4 x109 + 4 x159 + 4 x209 + 4 x259 + 4 x309 + 4 x359
       + 4 x409 + 4 x459 - 5 x509 <= 0
 c160: 4 x10 + 4 x60 + 4 x110 + 4 x160 + 4 x210 + 4 x260 + 4 x310 + 4 x360
       + 4 x410 + 4 x460 - 5 x510 <= 0
 c161: 4 x11 + 4 x61 + 4 x111 + 4 x161 + 4 x211 + 4 x261 + 4 x311 + 4 x361
       + 4 x411 + 4 x461 - 5 x511 <= 0
 c162: 4 x12 + 4 x62 + 4 x112 + 4 x162 + 4 x212 + 4 x262 + 4 x312 + 4 x362
       + 4 x412 + 4 x462 - 5 x512 <= 0
 c163: 4 x13 + 4 x63 + 4 x113 + 4 x163 + 4 x213 + 4 x263 + 4 x313 + 4 x363
       + 4 x413 + 4 x463 - 5 x513 <= 0
 c164: 4 x14 + 4 x64 + 4 x114 + 4 x164 + 4 x214 + 4 x264 + 4 x314 + 4 x364
       + 4 x414 + 4 x464 - 5 x514 <= 0
 c165: 4 x15 + 4 x65 + 4 x115 + 4 x165 + 4 x215 + 4 x265 + 4 x315 + 4 x365
       + 4 x415 + 4 x465 - 5 x515 <= 0
 c166: 4 x16 + 4 x66 + 4 x116 + 4 x166 + 4 x216 + 4 x266 + 4 x316 + 4 x366
       + 4 x416 + 4 x466 - 5 x516 <= 0
 c167: 4 x17 + 4 x67 + 4 x117 + 4 x167 + 4 x217 + 4 x267 + 4 x317 + 4 x367
       + 4 x417 + 4 x467 - 5 x517 <= 0
 c168: 4 x18 + 4 x68 + 4 x118 + 4 x168 + 4 x218 + 4 x268 + 4 x318 + 4 x368
       + 4 x418 + 4 x468 - 5 x518 <= 0
 c169: 4 x19 + 4 x69 + 4 x119 + 4 x169 + 4 x219 + 4 x269 + 4 x319 + 4 x369
       + 4 x419 + 4 x469 - 5 x519 <= 0
 c170: 4 x20 + 4 x70 + 4 x120 + 4 x170 + 4 x220 + 4 x270 + 4 x320 + 4 x370
       + 4 x420 + 4 x470 - 5 x520 <= 0
 c171: 4 x21 + 4 x71 + 4 x121 + 4 x171 + 4 x221 + 4 x271 + 4 x321 + 4 x371
       + 4 x421 + 4 x471 - 5 x521 <= 0
 c172: 4 x22 + 4 x72 + 4 x122 + 4 x172 + 4 x222 + 4 x272 + 4 x322 + 4 x372
       + 4 x422 + 4 x472 - 5 x522 <= 0
 c173: 4 x23 + 4 x73 + 4 x123 + 4 x173 + 4 x223 + 4 x273 + 4 x323 + 4 x373
       + 4 x423 + 4 x473 - 5 x523 <= 0
 c174: 4 x24 + 4 x74 + 4 x124 + 4 x174 + 4 x224 + 4 x274 + 4 x324 + 4 x374
       + 4 x424 + 4 x474 - 5 x524 <= 0
 c175: 4 x25 + 4 x75 + 4 x125 + 4 x175 + 4 x225 + 4 x275 + 4 x325 + 4 x375
       + 4 x425 + 4 x475 - 5 x525 <= 0
 c176: 4 x26 + 4 x76 + 4 x126 + 4 x176 + 4 x226 + 4 x276 + 4 x326 + 4 x376
       + 4 x426 + 4 x476 - 5 x526 <= 0
 c177: 4 x27 + 4 x77 + 4 x127 + 4 x177 + 4 x227 + 4 x277 + 4 x327 + 4 x377
       + 4 x427 + 4 x477 - 5 x527 <= 0
 c178: 4 x28 + 4 x78 + 4 x128 + 4 x178 + 4 x228 + 4 x278 + 4 x328 + 4 x378
       + 4 x428 + 4 x478 - 5 x528 <= 0
 c179: 4 x29 + 4 x79 + 4 x129 + 4 x179 + 4 x229 + 4 x279 + 4 x329 + 4 x379
       + 4 x429 + 4 x479 - 5 x529 <= 0
 c180: 4 x30 + 4 x80 + 4 x130 + 4 x180 + 4 x230 + 4 x280 + 4 x330 + 4 x380
       + 4 x430 + 4 x480 - 5 x530 <= 0
 c181: 4 x31 + 4 x81 + 4 x131 + 4 x181 + 4 x231 + 4 x281 + 4 x331 + 4 x381
       + 4 x431 + 4 x481 - 5 x531 <= 0
 c182: 4 x32 + 4 x82 + 4 x132 + 4 x182 + 4 x232 + 4 x282 + 4 x332 + 4 x382
       + 4 x432 + 4 x482 - 5 x532 <= 0
 c183: 4 x33 + 4 x83 + 4 x133 + 4 x183 + 4 x233 + 4 x283 + 4 x333 + 4 x383
       + 4 x433 + 4 x483 - 5 x533 <= 0
 c184: 4 x34 + 4 x84 + 4 x134 + 4 x184 + 4 x234 + 4 x284 + 4 x334 + 4 x384
       + 4 x434 + 4 x484 - 5 x534 <= 0
 c185: 4 x35 + 4 x85 + 4 x135 + 4 x185 + 4 x235 + 4 x285 + 4 x335 + 4 x385
       + 4 x435 + 4 x485 - 5 x535 <= 0
 c186: 4 x36 + 4 x86 + 4 x136 + 4 x186 + 4 x236 + 4 x286 + 4 x336 + 4 x386
       + 4 x436 + 4 x486 - 5 x536 <= 0
 c187: 4 x37 + 4 x87 + 4 x137 + 4 x187 + 4 x237 + 4 x287 + 4 x337 + 4 x387
       + 4 x437 + 4 x487 - 5 x537 <= 0
 c188: 4 x38 + 4 x88 + 4 x138 + 4 x188 + 4 x238 + 4 x288 + 4 x338 + 4 x388
       + 4 x438 + 4 x488 - 5 x538 <= 0
 c189: 4 x39 + 4 x89 + 4 x139 + 4 x189 + 4 x239 + 4 x289 + 4 x339 + 4 x389
       + 4 x439 + 4 x489 - 5 x539 <= 0
 c190: 4 x40 + 4 x90 + 4 x140 + 4 x190 + 4 x240 + 4 x290 + 4 x340 + 4 x390
       + 4 x440 + 4 x490 - 5 x540 <= 0
 c191: 4 x41 + 4 x91 + 4 x141 + 4 x191 + 4 x241 + 4 x291 + 4 x341 + 4 x391
       + 4 x441 + 4 x491 - 5 x541 <= 0
 c192: 4 x42 + 4 x92 + 4 x142 + 4 x192 + 4 x242 + 4 x292 + 4 x342 + 4 x392
       + 4 x442 + 4 x492 - 5 x542 <= 0
 c193: 4 x43 + 4 x93 + 4 x143 + 4 x193 + 4 x243 + 4 x293 + 4 x343 + 4 x393
       + 4 x443 + 4 x493 - 5 x543 <= 0
 c194: 4 x44 + 4 x94 + 4 x144 + 4 x194 + 4 x244 + 4 x294 + 4 x344 + 4 x394
       + 4 x444 + 4 x494 - 5 x544 <= 0
 c195: 4 x45 + 4 x95 + 4 x145 + 4 x195 + 4 x245 + 4 x295 + 4 x345 + 4 x395
       + 4 x445 + 4 x495 - 5 x545 <= 0
 c196: 4 x46 + 4 x96 + 4 x146 + 4 x196 + 4 x246 + 4 x296 + 4 x346 + 4 x396
       + 4 x446 + 4 x496 - 5 x546 <= 0
 c197: 4 x47 + 4 x97 + 4 x147 + 4 x197 + 4 x247 + 4 x297 + 4 x347 + 4 x397
       + 4 x447 + 4 x497 - 5 x547 <= 0
 c198: 4 x48 + 4 x98 + 4 x148 + 4 x198 + 4 x248 + 4 x298 + 4 x348 + 4 x398
       + 4 x448 + 4 x498 - 5 x548 <= 0
 c199: 4 x49 + 4 x99 + 4 x149 + 4 x199 + 4 x249 + 4 x299 + 4 x349 + 4 x399
       + 4 x449 + 4 x499 - 5 x549 <= 0
 c200: 4 x50 + 4 x100 + 4 x150 + 4 x200 + 4 x250 + 4 x300 + 4 x350 + 4 x400
       + 4 x450 + 4 x500 - 5 x550 <= 0
Bounds
 0 <= x1 <= 1
 0 <= x2 <= 1
 0 <= x3 <= 1
 0 <= x4 <= 1
 0 <= x5 <= 1
 0 <= x6 <= 1
 0 <= x7 <= 1
 0 <= x8 <= 1
 0 <= x9 <= 1
 0 <= x10 <= 1
 0 <= x11 <= 1
 0 <= x12 <= 1
 0 <= x13 <= 1
 0 <= x14 <= 1
 0 <= x15 <= 1
 0 <= x16 <= 1
 0 <= x17 <= 1
 0 <= x18 <= 1
 0 <= x19 <= 1
 0 <= x20 <= 1
 0 <= x21 <= 1
 0 <= x22 <= 1
 0 <= x23 <= 1
 0 <= x24 <= 1
 0 <= x25 <= 1
 0 <= x26 <= 1
 0 <= x27 <= 1
 0 <= x28 <= 1
 0 <= x29 <= 1
 0 <= x30 <= 1
 0 <= x31 <= 1
 0 <= x32 <= 1
 0 <= x33 <= 1
 0 <= x34 <= 1
 0 <= x35 <= 1
 0 <= x36 <= 1
 0 <= x37 <= 1
 0 <= x38 <= 1
 0 <= x39 <= 1
 0 <= x40 <= 1
 0 <= x41 <= 1
 0 <= x42 <= 1
 0 <= x43 <= 1
 0 <= x44 <= 1
 0 <= x45 <= 1
 0 <= x46 <= 1
 0 <= x47 <= 1
 0 <= x48 <= 1
 0 <= x49 <= 1
 0 <= x50 <= 1
 0 <= x51 <= 1
 0 <= x52 <= 1
 0 <= x53 <= 1
 0 <= x54 <= 1
 0 <= x55 <= 1
 0 <= x56 <= 1
 0 <= x57 <= 1
 0 <= x58 <= 1
 0 <= x59 <= 1
 0 <= x60 <= 1
 0 <= x61 <= 1
 0 <= x62 <= 1
 0 <= x63 <= 1
 0 <= x64 <= 1
 0 <= x65 <= 1
 0 <= x66 <= 1
 0 <= x67 <= 1
 0 <= x68 <= 1
 0 <= x69 <= 1
 0 <= x70 <= 1
 0 <= x71 <= 1
 0 <= x72 <= 1
 0 <= x73 <= 1
 0 <= x74 <= 1
 0 <= x75 <= 1
 0 <= x76 <= 1
 0 <= x77 <= 1
 0 <= x78 <= 1
 0 <= x79 <= 1
 0 <= x80 <= 1
 0 <= x81 <= 1
 0 <= x82 <= 1
 0 <= x83 <= 1
 0 <= x84 <= 1
 0 <= x85 <= 1
 0 <= x86 <= 1
 0 <= x87 <= 1
 0 <= x88 <= 1
 0 <= x89 <= 1
 0 <= x90 <= 1
 0 <= x91 <= 1
 0 <= x92 <= 1
 0 <= x93 <= 1
 0 <= x94 <= 1
 0 <= x95 <= 1
 0 <= x96 <= 1
 0 <= x97 <= 1
 0 <= x98 <= 1
 0 <= x99 <= 1
 0 <= x100 <= 1
 0 <= x101 <= 1
 0 <= x102 <= 1
 0 <= x103 <= 1
 0 <= x104 <= 1
 0 <= x105 <= 1
 0 <= x106 <= 1
 0 <= x107 <= 1
 0 <= x108 <= 1
 0 <= x109 <= 1
 0 <= x110 <= 1
 0 <= x111 <= 1
 0 <= x112 <= 1
 0 <= x113 <= 1
 0 <= x114 <= 1
 0 <= x115 <= 1
 0 <= x116 <= 1
 0 <= x117 <= 1
 0 <= x118 <= 1
 0 <= x119 <= 1
 0 <= x120 <= 1
 0 <= x121 <= 1
 0 <= x122 <= 1
 0 <= x123 <= 1
 0 <= x124 <= 1
 0 <= x125 <= 1
 0 <= x126 <= 1
 0 <= x127 <= 1
 0 <= x128 <= 1
 0 <= x129 <= 1
 0 <= x130 <= 1
 0 <= x131 <= 1
 0 <= x132 <= 1
 0 <= x133 <= 1
 0 <= x134 <= 1
 0 <= x135 <= 1
 0 <= x136 <= 1
 0 <= x137 <= 1
 0 <= x138 <= 1
 0 <= x139 <= 1
 0 <= x140 <= 1
 0 <= x141 <= 1
 0 <= x142 <= 1
 0 <= x143 <= 1
 0 <= x144 <= 1
 0 <= x145 <= 1
 0 <= x146 <= 1
 0 <= x147 <= 1
 0 <= x148 <= 1
 0 <= x149 <= 1
 0 <= x150 <= 1
 0 <= x151 <= 1
 0 <= x152 <= 1
 0 <= x153 <= 1
 0 <= x154 <= 1
 0 <= x155 <= 1
 0 <= x156 <= 1
 0 <= x157 <= 1
 0 <= x158 <= 1
 0 <= x159 <= 1
 0 <= x160 <= 1
 0 <= x161 <= 1
 0 <= x162 <= 1
 0 <= x163 <= 1
 0 <= x164 <= 1
 0 <= x165 <= 1
 0 <= x166 <= 1
 0 <= x167 <= 1
 0 <= x168 <= 1
 0 <= x169 <= 1
 0 <= x170 <= 1
 0 <= x171 <= 1
 0 <= x172 <= 1
 0 <= x173 <= 1
 0 <= x174 <= 1
 0 <= x175 <= 1
 0 <= x176 <= 1
 0 <= x177 <= 1
 0 <= x178 <= 1
 0 <= x179 <= 1
 0 <= x180 <= 1
 0 <= x181 <= 1
 0 <= x182 <= 1
 0 <= x183 <= 1
 0 <= x184 <= 1
 0 <= x185 <= 1
 0 <= x186 <= 1
 0 <= x187 <= 1
 0 <= x188 <= 1
 0 <= x189 <= 1
 0 <= x190 <= 1
 0 <= x191 <= 1
 0 <= x192 <= 1
 0 <= x193 <= 1
 0 <= x194 <= 1
 0 <= x195 <= 1
 0 <= x196 <= 1
 0 <= x197 <= 1
 0 <= x198 <= 1
 0 <= x199 <= 1
 0 <= x200 <= 1
 0 <= x201 <= 1
 0 <= x202 <= 1
 0 <= x203 <= 1
 0 <= x204 <= 1
 0 <= x205 <= 1
 0 <= x206 <= 1
 0 <= x207 <= 1
 0 <= x208 <= 1
 0 <= x209 <= 1
 0 <= x210 <= 1
 0 <= x211 <= 1
 0 <= x212 <= 1
 0 <= x213 <= 1
 0 <= x214 <= 1
 0 <= x215 <= 1
 0 <= x216 <= 1
 0 <= x217 <= 1
 0 <= x218 <= 1
 0 <= x219 <= 1
 0 <= x220 <= 1
 0 <= x221 <= 1
 0 <= x222 <= 1
 0 <= x223 <= 1
 0 <= x224 <= 1
 0 <= x225 <= 1
 0 <= x226 <= 1
 0 <= x227 <= 1
 0 <= x228 <= 1
 0 <= x229 <= 1
 0 <= x230 <= 1
 0 <= x231 <= 1
 0 <= x232 <= 1
 0 <= x233 <= 1
 0 <= x234 <= 1
 0 <= x235 <= 1
 0 <= x236 <= 1
 0 <= x237 <= 1
 0 <= x238 <= 1
 0 <= x239 <= 1
 0 <= x240 <= 1
 0 <= x241 <= 1
 0 <= x242 <= 1
 0 <= x243 <= 1
 0 <= x244 <= 1
 0 <= x245 <= 1
 0 <= x246 <= 1
 0 <= x247 <= 1
 0 <= x248 <= 1
 0 <= x249 <= 1
 0 <= x250 <= 1
 0 <= x251 <= 1
 0 <= x252 <= 1
 0 <= x253 <= 1
 0 <= x254 <= 1
 0 <= x255 <= 1
 0 <= x256 <= 1
 0 <= x257 <= 1
 0 <= x258 <= 1
 0 <= x259 <= 1
 0 <= x260 <= 1
 0 <= x261 <= 1
 0 <= x262 <= 1
 0 <= x263 <= 1
 0 <= x264 <= 1
 0 <= x265 <= 1
 0 <= x266 <= 1
 0 <= x267 <= 1
 0 <= x268 <= 1
 0 <= x269 <= 1
 0 <= x270 <= 1
 0 <= x271 <= 1
 0 <= x272 <= 1
 0 <= x273 <= 1
 0 <= x274 <= 1
 0 <= x275 <= 1
 0 <= x276 <= 1
 0 <= x277 <= 1
 0 <= x278 <= 1
 0 <= x279 <= 1
 0 <= x280 <= 1
 0 <= x281 <= 1
 0 <= x282 <= 1
 0 <= x283 <= 1
 0 <= x284 <= 1
 0 <= x285 <= 1
 0 <= x286 <= 1
 0 <= x287 <= 1
 0 <= x288 <= 1
 0 <= x289 <= 1
 0 <= x290 <= 1
 0 <= x291 <= 1
 0 <= x292 <= 1
 0 <= x293 <= 1
 0 <= x294 <= 1
 0 <= x295 <= 1
 0 <= x296 <= 1
 0 <= x297 <= 1
 0 <= x298 <= 1
 0 <= x299 <= 1
 0 <= x300 <= 1
 0 <= x301 <= 1
 0 <= x302 <= 1
 0 <= x303 <= 1
 0 <= x304 <= 1
 0 <= x305 <= 1
 0 <= x306 <= 1
 0 <= x307 <= 1
 0 <= x308 <= 1
 0 <= x309 <= 1
 0 <= x310 <= 1
 0 <= x311 <= 1
 0 <= x312 <= 1
 0 <= x313 <= 1
 0 <= x314 <= 1
 0 <= x315 <= 1
 0 <= x316 <= 1
 0 <= x317 <= 1
 0 <= x318 <= 1
 0 <= x319 <= 1
 0 <= x320 <= 1
 0 <= x321 <= 1
 0 <= x322 <= 1
 0 <= x323 <= 1
 0 <= x324 <= 1
 0 <= x325 <= 1
 0 <= x326 <= 1
 0 <= x327 <= 1
 0 <= x328 <= 1
 0 <= x329 <= 1
 0 <= x330 <= 1
 0 <= x331 <= 1
 0 <= x332 <= 1
 0 <= x333 <= 1
 0 <= x334 <= 1
 0 <= x335 <= 1
 0 <= x336 <= 1
 0 <= x337 <= 1
 0 <= x338 <= 1
 0 <= x339 <= 1
 0 <= x340 <= 1
 0 <= x341 <= 1
 0 <= x342 <= 1
 0 <= x343 <= 1
 0 <= x344 <= 1
 0 <= x345 <= 1
 0 <= x346 <= 1
 0 <= x347 <= 1
 0 <= x348 <= 1
 0 <= x349 <= 1
 0 <= x350 <= 1
 0 <= x351 <= 1
 0 <= x352 <= 1
 0 <= x353 <= 1
 0 <= x354 <= 1
 0 <= x355 <= 1
 0 <= x356 <= 1
 0 <= x357 <= 1
 0 <= x358 <= 1
 0 <= x359 <= 1
 0 <= x360 <= 1
 0 <= x361 <= 1
 0 <= x362 <= 1
 0 <= x363 <= 1
 0 <= x364 <= 1
 0 <= x365 <= 1
 0 <= x366 <= 1
 0 <= x367 <= 1
 0 <= x368 <= 1
 0 <= x369 <= 1
 0 <= x370 <= 1
 0 <= x371 <= 1
 0 <= x372 <= 1
 0 <= x373 <= 1
 0 <= x374 <= 1
 0 <= x375 <= 1
 0 <= x376 <= 1
 0 <= x377 <= 1
 0 <= x378 <= 1
 0 <= x379 <= 1
 0 <= x380 <= 1
 0 <= x381 <= 1
 0 <= x382 <= 1
 0 <= x383 <= 1
 0 <= x384 <= 1
 0 <= x385 <= 1
 0 <= x386 <= 1
 0 <= x387 <= 1
 0 <= x388 <= 1
 0 <= x389 <= 1
 0 <= x390 <= 1
 0 <= x391 <= 1
 0 <= x392 <= 1
 0 <= x393 <= 1
 0 <= x394 <= 1
 0 <= x395 <= 1
 0 <= x396 <= 1
 0 <= x397 <= 1
 0 <= x398 <= 1
 0 <= x399 <= 1
 0 <= x400 <= 1
 0 <= x401 <= 1
 0 <= x402 <= 1
 0 <= x403 <= 1
 0 <= x404 <= 1
 0 <= x405 <= 1
 0 <= x406 <= 1
 0 <= x407 <= 1
 0 <= x408 <= 1
 0 <= x409 <= 1
 0 <= x410 <= 1
 0 <= x411 <= 1
 0 <= x412 <= 1
 0 <= x413 <= 1
 0 <= x414 <= 1
 0 <= x415 <= 1
 0 <= x416 <= 1
 0 <= x417 <= 1
 0 <= x418 <= 1
 0 <= x419 <= 1
 0 <= x420 <= 1
 0 <= x421 <= 1
 0 <= x422 <= 1
 0 <= x423 <= 1
 0 <= x424 <= 1
 0 <= x425 <= 1
 0 <= x426 <= 1
 0 <= x427 <= 1
 0 <= x428 <= 1
 0 <= x429 <= 1
 0 <= x430 <= 1
 0 <= x431 <= 1
 0 <= x432 <= 1
 0 <= x433 <= 1
 0 <= x434 <= 1
 0 <= x435 <= 1
 0 <= x436 <= 1
 0 <= x437 <= 1
 0 <= x438 <= 1
 0 <= x439 <= 1
 0 <= x440 <= 1
 0 <= x441 <= 1
 0 <= x442 <= 1
 0 <= x443 <= 1
 0 <= x444 <= 1
 0 <= x445 <= 1
 0 <= x446 <= 1
 0 <= x447 <= 1
 0 <= x448 <= 1
 0 <= x449 <= 1
 0 <= x450 <= 1
 0 <= x451 <= 1
 0 <= x452 <= 1
 0 <= x453 <= 1
 0 <= x454 <= 1
 0 <= x455 <= 1
 0 <= x456 <= 1
 0 <= x457 <= 1
 0 <= x458 <= 1
 0 <= x459 <= 1
 0 <= x460 <= 1
 0 <= x461 <= 1
 0 <= x462 <= 1
 0 <= x463 <= 1
 0 <= x464 <= 1
 0 <= x465 <= 1
 0 <= x466 <= 1
 0 <= x467 <= 1
 0 <= x468 <= 1
 0 <= x469 <= 1
 0 <= x470 <= 1
 0 <= x471 <= 1
 0 <= x472 <= 1
 0 <= x473 <= 1
 0 <= x474 <= 1
 0 <= x475 <= 1
 0 <= x476 <= 1
 0 <= x477 <= 1
 0 <= x478 <= 1
 0 <= x479 <= 1
 0 <= x480 <= 1
 0 <= x481 <= 1
 0 <= x482 <= 1
 0 <= x483 <= 1
 0 <= x484 <= 1
 0 <= x485 <= 1
 0 <= x486 <= 1
 0 <= x487 <= 1
 0 <= x488 <= 1
 0 <= x489 <= 1
 0 <= x490 <= 1
 0 <= x491 <= 1
 0 <= x492 <= 1
 0 <= x493 <= 1
 0 <= x494 <= 1
 0 <= x495 <= 1
 0 <= x496 <= 1
 0 <= x497 <= 1
 0 <= x498 <= 1
 0 <= x499 <= 1
 0 <= x500 <= 1
 0 <= x501 <= 1
 0 <= x502 <= 1
 0 <= x503 <= 1
 0 <= x504 <= 1
 0 <= x505 <= 1
 0 <= x506 <= 1
 0 <= x507 <= 1
 0 <= x508 <= 1
 0 <= x509 <= 1
 0 <= x510 <= 1
 0 <= x511 <= 1
 0 <= x512 <= 1
 0 <= x513 <= 1
 0 <= x514 <= 1
 0 <= x515 <= 1
 0 <= x516 <= 1
 0 <= x517 <= 1
 0 <= x518 <= 1
 0 <= x519 <= 1
 0 <= x520 <= 1
 0 <= x521 <= 1
 0 <= x522 <= 1
 0 <= x523 <= 1
 0 <= x524 <= 1
 0 <= x525 <= 1
 0 <= x526 <= 1
 0 <= x527 <= 1
 0 <= x528 <= 1
 0 <= x529 <= 1
 0 <= x530 <= 1
 0 <= x531 <= 1
 0 <= x532 <= 1
 0 <= x533 <= 1
 0 <= x534 <= 1
 0 <= x535 <= 1
 0 <= x536 <= 1
 0 <= x537 <= 1
 0 <= x538 <= 1
 0 <= x539 <= 1
 0 <= x540 <= 1
 0 <= x541 <= 1
 0 <= x542 <= 1
 0 <= x543 <= 1
 0 <= x544 <= 1
 0 <= x545 <= 1
 0 <= x546 <= 1
 0 <= x547 <= 1
 0 <= x548 <= 1
 0 <= x549 <= 1
 0 <= x550 <= 1
Binaries
 x501  x502  x503  x504  x505  x506  x507  x508  x509  x510  x511  x512  x513 
 x514  x515  x516  x517  x518  x519  x520  x521  x522  x523  x524  x525  x526 
 x527  x528  x529  x530  x531  x532  x533  x534  x535  x536  x537  x538  x539 
 x540  x541  x542  x543  x544  x545  x546  x547  x548  x549  x550 
End
